120 1000
1 398 2 4 10 11 12 14 15 16 17 18 19 25 27 28 30 31 33 66 34 35 36 37 38 39 43 46 48 49 50 51 53 54 56 57 58 59 61 62 63 65 68 69 73 77 79 80 81 82 85 86 88 89 93 101 102 103 104 105 114 117 118 119 120
2 262 3 4 8 9 10 11 12 14 15 16 17 18 19 21 22 25 27 28 29 30 31 33 66 34 35 36 37 38 39 40 41 42 43 44 45 46 47 48 49 50 51 52 53 54 56 57 58 59 60 61 62 63 64 65 67 68 69 70 71 72 73 74 76 77 78 79 80 81 82 85 86 88 89 93 95 96 99 100 101 102 103 104 105 106 107 108 110 111 112 113 114 115 117 118 119 120
3 340 4 10 11 12 14 15 16 17 18 19 25 27 28 30 31 33 66 34 35 36 37 38 39 43 44 46 48 49 50 51 53 54 56 57 58 59 61 62 63 65 68 69 73 77 79 80 81 82 85 86 88 89 93 101 102 103 104 105 114 117 118 119 120
4 477 5 6 7 8 9 10 11 12 13 14 15 16 17 18 19 20 21 22 23 24 25 26 27 28 29 30 31 32 33 66 34 35 36 37 38 39 40 41 42 43 44 45 46 47 48 49 50 51 52 53 54 55 56 57 58 59 60 61 62 63 64 65 67 68 69 70 71 72 73 74 75 76 77 78 79 80 81 82 83 84 85 86 87 88 89 90 91 92 93 94 95 96 97 98 99 100 101 102 103 104 105 106 107 108 109 110 111 112 113 114 115 116 117 118 119 120
5 259 11 14 15 16 18 19 25 27 28 30 31 33 66 34 35 37 38 43 46 48 50 51 53 54 57 58 59 63 65 68 69 73 77 80 82 85 86 88 89 93 101 102 103 105 114 117 120
6 264 11 14 15 16 18 19 25 27 28 30 31 33 66 34 35 37 38 43 48 50 51 53 57 58 59 63 65 69 73 77 80 82 85 86 89 93 101 102 103 105 114 117 120
7 385 11 14 15 16 18 19 25 27 31 33 66 34 35 37 38 43 48 50 51 53 57 58 59 63 65 69 73 77 80 85 86 89 93 101 102 103 105 114 120
8 298 10 11 12 14 15 16 18 19 25 27 28 30 31 33 66 34 35 37 38 43 46 48 49 50 51 53 54 56 57 58 59 62 63 65 68 69 73 77 80 82 85 86 88 89 93 101 102 103 105 114 117 119 120
9 317 10 11 12 14 15 16 17 18 19 21 25 27 28 30 31 33 66 34 35 36 37 38 39 43 44 45 46 48 49 50 51 53 54 56 57 58 59 61 62 63 64 65 68 69 73 77 79 80 81 82 85 86 88 89 93 100 101 102 103 104 105 108 114 115 117 118 119 120
10 366 11 12 14 15 16 17 18 19 21 22 25 27 28 29 30 31 32 33 66 34 35 36 37 38 39 40 41 42 43 44 45 46 47 48 49 50 51 52 53 54 56 57 58 59 60 61 62 63 64 65 67 68 69 70 71 72 73 74 76 77 78 79 80 81 82 85 86 88 89 93 95 96 99 100 101 102 103 104 105 106 107 108 110 111 112 113 114 115 117 118 119 120
11 295 12 13 14 15 16 17 18 19 20 21 22 25 27 28 29 30 31 32 33 66 34 35 36 37 38 39 40 41 42 43 44 45 46 47 48 49 50 51 52 53 54 56 57 58 59 60 61 62 63 64 65 67 68 69 70 71 72 73 74 75 76 77 78 79 80 81 82 85 86 87 88 89 91 93 94 95 96 98 99 100 101 102 103 104 105 106 107 108 109 110 111 112 113 114 115 116 117 118 119 120
12 339 14 15 16 17 18 19 21 22 25 27 28 29 30 31 32 33 66 34 35 36 37 38 39 40 41 42 43 44 45 46 47 48 49 50 51 52 53 54 56 57 58 59 60 61 62 63 64 65 67 68 69 70 71 72 73 74 76 77 78 79 80 81 82 85 86 88 89 93 95 96 99 100 101 102 103 104 105 106 107 108 110 111 112 113 114 115 117 118 119 120
13 408 14 15 16 18 19 25 27 28 31 33 66 34 35 37 38 43 48 50 51 53 57 58 59 63 65 69 73 77 80 85 86 89 93 101 102 103 105 114 120
14 275 15 16 17 18 19 20 21 22 23 24 25 26 27 28 29 30 31 32 33 66 34 35 36 37 38 39 40 41 42 43 44 45 46 47 48 49 50 51 52 53 54 55 56 57 58 59 60 61 62 63 64 65 67 68 69 70 71 72 73 74 75 76 77 78 79 80 81 82 83 84 85 86 87 88 89 90 91 92 93 94 95 96 97 98 99 100 101 102 103 104 105 106 107 108 109 110 111 112 113 114 115 116 117 118 119 120
15 317 16 17 18 19 20 21 22 23 24 25 26 27 28 29 30 31 32 33 66 34 35 36 37 38 39 40 41 42 43 44 45 46 47 48 49 50 51 52 53 54 55 56 57 58 59 60 61 62 63 64 65 67 68 69 70 71 72 73 74 75 76 77 78 79 80 81 82 83 84 85 86 87 88 89 90 91 92 93 94 95 96 97 98 99 100 101 102 103 104 105 106 107 108 109 110 111 112 113 114 115 116 117 118 119 120
16 370 17 18 19 20 21 22 23 24 25 26 27 28 29 30 31 32 33 66 34 35 36 37 38 39 40 41 42 43 44 45 46 47 48 49 50 51 52 53 54 55 56 57 58 59 60 61 62 63 64 65 67 68 69 70 71 72 73 74 75 76 77 78 79 80 81 82 83 84 85 86 87 88 89 90 91 92 93 94 95 96 97 98 99 100 101 102 103 104 105 106 107 108 109 110 111 112 113 114 115 116 117 118 119 120
17 292 18 19 21 22 25 27 28 29 30 31 33 66 34 35 36 37 38 39 40 41 43 44 45 46 47 48 49 50 51 52 53 54 56 57 58 59 60 61 62 63 64 65 67 68 69 70 71 72 73 74 76 77 78 79 80 81 82 85 86 88 89 93 95 96 99 100 101 102 103 104 105 106 107 108 110 111 112 114 115 117 118 119 120
18 338 19 20 21 22 23 24 25 26 27 28 29 30 31 32 33 66 34 35 36 37 38 39 40 41 42 43 44 45 46 47 48 49 50 51 52 53 54 55 56 57 58 59 60 61 62 63 64 65 67 68 69 70 71 72 73 74 75 76 77 78 79 80 81 82 83 84 85 86 87 88 89 90 91 92 93 94 95 96 97 98 99 100 101 102 103 104 105 106 107 108 109 110 111 112 113 114 115 116 117 118 119 120
19 410 20 21 22 23 24 25 26 27 28 29 30 31 32 33 66 34 35 36 37 38 39 40 41 42 43 44 45 46 47 48 49 50 51 52 53 54 55 56 57 58 59 60 61 62 63 64 65 67 68 69 70 71 72 73 74 75 76 77 78 79 80 81 82 83 84 85 86 87 88 89 90 91 92 93 94 95 96 97 98 99 100 101 102 103 104 105 106 107 108 109 110 111 112 113 114 115 116 117 118 119 120
20 286 25 27 31 33 66 35 37 38 43 48 50 51 53 57 58 59 63 65 69 73 77 80 85 86 89 93 101 102 103 105 114 120
21 304 25 27 28 30 31 33 66 34 35 36 37 38 39 43 44 45 46 48 49 50 51 53 54 56 57 58 59 61 62 63 64 65 67 68 69 72 73 74 77 78 79 80 81 82 85 86 88 89 93 99 100 101 102 103 104 105 108 110 114 115 117 118 119 120
22 393 25 27 28 30 31 33 66 34 35 36 37 38 39 43 44 46 48 49 50 51 53 54 56 57 58 59 61 62 63 65 68 69 73 77 79 80 81 82 85 86 88 89 93 100 101 102 103 104 105 108 114 117 118 119 120
23 261 25 27 31 33 35 37 38 43 48 51 53 58 63 65 69 73 77 80 85 86 93 101 105 120
24 346 25 27 31 33 35 37 38 43 48 51 53 58 63 65 69 73 77 80 85 86 93 101 105 120
25 373 26 27 28 29 30 31 32 33 66 34 35 36 37 38 39 40 41 42 43 44 45 46 47 48 49 50 51 52 53 54 55 56 57 58 59 60 61 62 63 64 65 67 68 69 70 71 72 73 74 75 76 77 78 79 80 81 82 83 84 85 86 87 88 89 90 91 92 93 94 95 96 97 98 99 100 101 102 103 104 105 106 107 108 109 110 111 112 113 114 115 116 117 118 119 120
26 304 27 31 33 35 37 38 43 48 50 51 53 58 63 65 69 73 77 80 85 86 93 101 105 120
27 323 28 29 30 31 32 33 66 34 35 36 37 38 39 40 41 42 43 44 45 46 47 48 49 50 51 52 53 54 55 56 57 58 59 60 61 62 63 64 65 67 68 69 70 71 72 73 74 75 76 77 78 79 80 81 82 83 84 85 86 87 88 89 90 91 92 93 94 95 96 97 98 99 100 101 102 103 104 105 106 107 108 109 110 111 112 113 114 115 116 117 118 119 120
28 369 29 30 31 32 33 66 34 35 36 37 38 39 40 41 42 43 44 45 46 47 48 49 50 51 52 53 54 56 57 58 59 60 61 62 63 64 65 67 68 69 70 71 72 73 74 75 76 77 78 79 80 81 82 85 86 88 89 93 94 95 96 98 99 100 101 102 103 104 105 106 107 108 109 110 111 112 113 114 115 116 117 118 119 120
29 313 30 31 33 66 34 35 36 37 38 43 46 48 49 50 51 53 54 56 57 58 59 62 63 65 68 69 73 77 79 80 81 82 85 86 88 89 93 101 102 103 105 114 117 119 120
30 318 31 32 33 66 34 35 36 37 38 39 40 41 42 43 44 45 46 47 48 49 50 51 52 53 54 56 57 58 59 60 61 62 63 64 65 67 68 69 70 71 72 73 74 75 76 77 78 79 80 81 82 85 86 88 89 93 95 96 98 99 100 101 102 103 104 105 106 107 108 110 111 112 113 114 115 116 117 118 119 120
31 469 32 33 66 34 35 36 37 38 39 40 41 42 43 44 45 46 47 48 49 50 51 52 53 54 55 56 57 58 59 60 61 62 63 64 65 67 68 69 70 71 72 73 74 75 76 77 78 79 80 81 82 83 84 85 86 87 88 89 90 91 92 93 94 95 96 97 98 99 100 101 102 103 104 105 106 107 108 109 110 111 112 113 114 115 116 117 118 119 120
32 264 33 66 34 35 37 38 43 46 48 50 51 53 54 57 58 59 63 65 68 69 73 77 80 82 85 86 88 89 93 101 102 103 105 114 117 120
33 267 66 34 35 36 37 38 39 40 41 42 43 44 45 46 47 48 49 50 51 52 53 54 55 56 57 58 59 60 61 62 63 64 65 67 68 69 70 71 72 73 74 75 76 77 78 79 80 81 82 83 84 85 86 87 88 89 90 91 92 93 94 95 96 97 98 99 100 101 102 103 104 105 106 107 108 109 110 111 112 113 114 115 116 117 118 119 120
34 473 66 35 36 37 38 39 40 41 42 43 44 45 46 47 48 49 50 51 52 53 54 56 57 58 59 60 61 62 63 64 65 67 68 69 70 71 72 73 74 75 76 77 78 79 80 81 82 85 86 87 88 89 93 94 95 96 98 99 100 101 102 103 104 105 106 107 108 109 110 111 112 113 114 115 116 117 118 119 120
35 259 66 36 37 38 39 40 41 42 43 44 45 46 47 48 49 50 51 52 53 54 55 56 57 58 59 60 61 62 63 64 65 67 68 69 70 71 72 73 74 75 76 77 78 79 80 81 82 83 84 85 86 87 88 89 90 91 92 93 94 95 96 97 98 99 100 101 102 103 104 105 106 107 108 109 110 111 112 113 114 115 116 117 118 119 120
36 268 66 37 38 39 40 41 43 44 45 46 47 48 49 50 51 53 54 56 57 58 59 60 61 62 63 64 65 67 68 69 70 71 72 73 74 76 77 78 79 80 81 82 85 86 88 89 93 95 96 99 100 101 102 103 104 105 106 107 108 110 111 112 114 115 117 118 119 120
37 355 66 38 39 40 41 42 43 44 45 46 47 48 49 50 51 52 53 54 55 56 57 58 59 60 61 62 63 64 65 67 68 69 70 71 72 73 74 75 76 77 78 79 80 81 82 83 84 85 86 87 88 89 90 91 92 93 94 95 96 97 98 99 100 101 102 103 104 105 106 107 108 109 110 111 112 113 114 115 116 117 118 119 120
38 297 66 39 40 41 42 43 44 45 46 47 48 49 50 51 52 53 54 55 56 57 58 59 60 61 62 63 64 65 67 68 69 70 71 72 73 74 75 76 77 78 79 80 81 82 83 84 85 86 87 88 89 90 91 92 93 94 95 96 97 98 99 100 101 102 103 104 105 106 107 108 109 110 111 112 113 114 115 116 117 118 119 120
39 348 66 40 41 43 44 45 46 47 48 49 50 51 53 54 56 57 58 59 60 61 62 63 64 65 67 68 69 71 72 73 74 77 78 79 80 81 82 85 86 88 89 93 95 96 99 100 101 102 103 104 105 106 107 108 110 111 112 114 115 117 118 119 120
40 457 66 43 44 46 48 49 50 51 53 54 56 57 58 59 61 62 63 65 68 69 73 77 79 80 81 82 85 86 88 89 93 101 102 103 104 105 114 117 118 119 120
41 256 66 43 44 45 46 48 49 50 51 53 54 56 57 58 59 61 62 63 64 65 68 69 73 77 79 80 81 82 85 86 88 89 93 100 101 102 103 104 105 108 114 117 118 119 120
42 287 66 43 46 48 50 51 53 54 57 58 59 63 65 68 69 73 77 80 82 85 86 88 89 93 101 102 103 105 114 117 120
43 495 66 44 45 46 47 48 49 50 51 52 53 54 55 56 57 58 59 60 61 62 63 64 65 67 68 69 70 71 72 73 74 75 76 77 78 79 80 81 82 83 84 85 86 87 88 89 90 91 92 93 94 95 96 97 98 99 100 101 102 103 104 105 106 107 108 109 110 111 112 113 114 115 116 117 118 119 120
44 250 66 45 46 48 49 50 51 53 54 56 57 58 59 60 61 62 63 64 65 67 68 69 72 73 74 77 78 79 80 81 82 85 86 88 89 93 96 99 100 101 102 103 104 105 108 110 112 114 115 117 118 119 120
45 255 66 46 48 49 50 51 53 54 56 57 58 59 61 62 63 64 65 67 68 69 72 73 74 77 78 79 80 81 82 85 86 88 89 93 99 100 101 102 103 104 105 108 110 114 115 117 118 119 120
46 460 66 47 48 49 50 51 52 53 54 56 57 58 59 60 61 62 63 64 65 67 68 69 70 71 72 73 74 76 77 78 79 80 81 82 85 86 88 89 93 95 96 98 99 100 101 102 103 104 105 106 107 108 110 111 112 113 114 115 117 118 119 120
47 258 66 48 49 50 51 53 54 56 57 58 59 62 63 65 68 69 73 77 79 80 81 82 85 86 88 89 93 101 102 103 104 105 114 117 118 119 120
48 282 66 49 50 51 52 53 54 55 56 57 58 59 60 61 62 63 64 65 67 68 69 70 71 72 73 74 75 76 77 78 79 80 81 82 83 84 85 86 87 88 89 90 91 92 93 94 95 96 97 98 99 100 101 102 103 104 105 106 107 108 109 110 111 112 113 114 115 116 117 118 119 120
49 421 66 50 51 52 53 54 56 57 58 59 60 61 62 63 64 65 67 68 69 70 71 72 73 74 76 77 78 79 80 81 82 85 86 88 89 93 95 96 99 100 101 102 103 104 105 106 107 108 110 111 112 113 114 115 117 118 119 120
50 250 66 51 52 53 54 56 57 58 59 60 61 62 63 64 65 67 68 69 70 71 72 73 74 75 76 77 78 79 80 81 82 85 86 87 88 89 90 91 92 93 94 95 96 98 99 100 101 102 103 104 105 106 107 108 109 110 111 112 113 114 115 116 117 118 119 120
51 329 66 52 53 54 55 56 57 58 59 60 61 62 63 64 65 67 68 69 70 71 72 73 74 75 76 77 78 79 80 81 82 83 84 85 86 87 88 89 90 91 92 93 94 95 96 97 98 99 100 101 102 103 104 105 106 107 108 109 110 111 112 113 114 115 116 117 118 119 120
52 444 66 53 54 56 57 58 59 62 63 65 68 69 73 77 79 80 81 82 85 86 88 89 93 101 102 103 105 114 117 119 120
53 272 66 54 55 56 57 58 59 60 61 62 63 64 65 67 68 69 70 71 72 73 74 75 76 77 78 79 80 81 82 83 84 85 86 87 88 89 90 91 92 93 94 95 96 97 98 99 100 101 102 103 104 105 106 107 108 109 110 111 112 113 114 115 116 117 118 119 120
54 284 66 56 57 58 59 60 61 62 63 64 65 67 68 69 70 71 72 73 74 75 76 77 78 79 80 81 82 85 86 88 89 93 95 96 98 99 100 101 102 103 104 105 106 107 108 110 111 112 113 114 115 117 118 119 120
55 499 58 63 65 69 77 80 85 86 93 101 105 120
56 250 66 57 58 59 60 61 62 63 64 65 67 68 69 70 71 72 73 74 76 77 78 79 80 81 82 85 86 88 89 93 95 96 99 100 101 102 103 104 105 106 107 108 110 111 112 113 114 115 117 118 119 120
57 251 66 58 59 60 61 62 63 64 65 67 68 69 70 71 72 73 74 75 76 77 78 79 80 81 82 85 86 87 88 89 90 91 92 93 94 95 96 98 99 100 101 102 103 104 105 106 107 108 109 110 111 112 113 114 115 116 117 118 119 120
58 461 66 59 60 61 62 63 64 65 67 68 69 70 71 72 73 74 75 76 77 78 79 80 81 82 83 84 85 86 87 88 89 90 91 92 93 94 95 96 97 98 99 100 101 102 103 104 105 106 107 108 109 110 111 112 113 114 115 116 117 118 119 120
59 253 66 60 61 62 63 64 65 67 68 69 70 71 72 73 74 75 76 77 78 79 80 81 82 85 86 87 88 89 93 94 95 96 98 99 100 101 102 103 104 105 106 107 108 109 110 111 112 113 114 115 116 117 118 119 120
60 286 66 61 62 63 65 68 69 73 77 79 80 81 82 85 86 88 89 93 100 101 102 103 104 105 108 114 117 118 119 120
61 407 66 62 63 64 65 67 68 69 71 72 73 74 77 78 79 80 81 82 85 86 88 89 93 95 96 99 100 101 102 103 104 105 106 107 108 110 111 112 114 115 117 118 119 120
62 259 66 63 64 65 67 68 69 70 71 72 73 74 76 77 78 79 80 81 82 85 86 88 89 93 95 96 99 100 101 102 103 104 105 106 107 108 110 111 112 113 114 115 117 118 119 120
63 334 66 64 65 67 68 69 70 71 72 73 74 75 76 77 78 79 80 81 82 83 84 85 86 87 88 89 90 91 92 93 94 95 96 97 98 99 100 101 102 103 104 105 106 107 108 109 110 111 112 113 114 115 116 117 118 119 120
64 424 66 65 67 68 69 72 73 74 77 78 79 80 81 82 85 86 88 89 93 99 100 101 102 103 104 105 108 110 114 115 117 118 119 120
65 276 66 67 68 69 70 71 72 73 74 75 76 77 78 79 80 81 82 83 84 85 86 87 88 89 90 91 92 93 94 95 96 97 98 99 100 101 102 103 104 105 106 107 108 109 110 111 112 113 114 115 116 117 118 119 120
66 300 67 68 69 70 71 72 73 74 75 76 77 78 79 80 81 82 85 86 87 88 89 93 94 95 96 98 99 100 101 102 103 104 105 106 107 108 109 110 111 112 113 114 115 116 117 118 119 120
67 417 68 69 73 77 78 79 80 81 82 85 86 88 89 93 99 100 101 102 103 104 105 108 110 114 115 117 118 119 120
68 256 69 70 71 72 73 74 76 77 78 79 80 81 82 85 86 88 89 93 95 96 98 99 100 101 102 103 104 105 106 107 108 110 111 112 113 114 115 117 118 119 120
69 327 70 71 72 73 74 75 76 77 78 79 80 81 82 83 84 85 86 87 88 89 90 91 92 93 94 95 96 97 98 99 100 101 102 103 104 105 106 107 108 109 110 111 112 113 114 115 116 117 118 119 120
70 453 73 77 79 80 81 82 85 86 88 89 93 101 102 103 105 114 117 119 120
71 252 73 77 79 80 81 82 85 86 88 89 93 101 102 103 104 105 114 117 118 119 120
72 295 73 77 79 80 81 82 85 86 88 89 93 100 101 102 103 104 105 108 114 115 117 118 119 120
73 418 74 75 76 77 78 79 80 81 82 83 84 85 86 87 88 89 90 91 92 93 94 95 96 97 98 99 100 101 102 103 104 105 106 107 108 109 110 111 112 113 114 115 116 117 118 119 120
74 255 77 79 80 81 82 85 86 88 89 93 100 101 102 103 104 105 108 114 115 117 118 119 120
75 327 77 80 82 85 86 89 93 101 102 103 105 114 117 120
76 495 77 79 80 81 82 85 86 88 89 93 101 102 103 105 114 117 119 120
77 250 78 79 80 81 82 83 84 85 86 87 88 89 90 91 92 93 94 95 96 97 98 99 100 101 102 103 104 105 106 107 108 109 110 111 112 113 114 115 116 117 118 119 120
78 255 79 80 81 82 85 86 88 89 93 100 101 102 103 104 105 108 114 115 117 118 119 120
79 476 80 81 82 85 86 88 89 93 95 96 99 100 101 102 103 104 105 106 107 108 110 111 112 114 115 117 118 119 120
80 259 81 82 83 84 85 86 87 88 89 90 91 92 93 94 95 96 97 98 99 100 101 102 103 104 105 106 107 108 109 110 111 112 113 114 115 116 117 118 119 120
81 265 82 85 86 88 89 93 95 96 99 100 101 102 103 104 105 106 107 108 110 111 112 114 115 117 118 119 120
82 488 85 86 88 89 93 95 96 98 99 100 101 102 103 104 105 106 107 108 110 111 112 113 114 115 116 117 118 119 120
83 254 85 86 93 101 105 120
84 258 85 86 93 101 105 120
85 438 86 87 88 89 90 91 92 93 94 95 96 97 98 99 100 101 102 103 104 105 106 107 108 109 110 111 112 113 114 115 116 117 118 119 120
86 250 87 88 89 90 91 92 93 94 95 96 97 98 99 100 101 102 103 104 105 106 107 108 109 110 111 112 113 114 115 116 117 118 119 120
87 312 89 93 101 102 103 105 114 120
88 400 89 93 95 96 98 99 100 101 102 103 104 105 106 107 108 110 111 112 113 114 115 117 118 119 120
89 292 90 91 92 93 94 95 96 98 99 100 101 102 103 104 105 106 107 108 109 110 111 112 113 114 115 116 117 118 119 120
90 308 93 101 102 105 120
91 455 93 101 102 103 105 120
92 267 93 101 102 105 120
93 278 94 95 96 97 98 99 100 101 102 103 104 105 106 107 108 109 110 111 112 113 114 115 116 117 118 119 120
94 428 101 102 103 105 114 117 120
95 282 101 102 103 104 105 114 117 118 119 120
96 290 100 101 102 103 104 105 108 114 117 118 119 120
97 408 101 105 120
98 286 101 102 103 105 114 117 120
99 306 100 101 102 103 104 105 108 110 114 115 117 118 119 120
100 488 101 102 103 104 105 108 110 114 115 117 118 119 120
101 250 102 103 104 105 106 107 108 109 110 111 112 113 114 115 116 117 118 119 120
102 262 103 104 105 106 107 108 109 110 111 112 113 114 115 116 117 118 119 120
103 391 104 105 106 107 108 109 110 111 112 113 114 115 116 117 118 119 120
104 300 105 106 107 108 110 111 112 114 115 117 118 119 120
105 309 106 107 108 109 110 111 112 113 114 115 116 117 118 119 120
106 418 114 117 118 119 120
107 268 114 117 118 119 120
108 314 110 114 115 117 118 119 120
109 458 114 120
110 268 114 115 117 118 119 120
111 274 114 117 118 119 120
112 493 114 117 118 119 120
113 251 114 117 119 120
114 256 115 116 117 118 119 120
115 395 117 118 119 120
116 282 117 120
117 323 118 119 120
118 466 119 120
119 254 120
120 280
